Route #1: 69 30 65 71 9 51
Route #2: 39 67 23 73
Route #3: 27 19 11 64 63 90 62 88 0 82 48 7 10 31 0 13 97 95 94 89 0 1 50 77 68 80 12
Route #4: 92 44 14 42 15 57 87 53 0 40 21 72 22 41 2 58
Route #5: 45 47 36 49 46 8 18 0 3 78 34 35 66 20 32 70 0 98 37 100 91 85 93
Route #6: 99 61 16 86 38 43 0 74 75 56 4 25 55 24 54 26
Route #7: 28 33 81 79 29 76 0 6 96 59 5 84 17 83 60 52
Cost: 12748
Optimal: True
